Traveling Salesman Problem/TSP_generados/Aleatorio1620391147_14.tsp
NAME: Aleatorio1620391147_14.tsp
COMMENT: Randomly generated scenario
TYPE: TSP
DIMENSION: 14
EDGE_WEIGHT_TYPE: ATT
NODE_COORD_SECTION
1 9.73 26.47
2 2.83 31.99
3 26.83 13.51
4 48.33 16.28
5 48.14 1.02
6 30.16 8.38
7 12.5 16.56
8 45.89 13.68
9 40.97 4.65
10 43.94 6.41
11 15.31 45.05
12 48.69 36.37
13 46.04 30.26
14 45.77 24.22
