Traveling Salesman Problem/TSP_generados/Aleatorio1620391147_14.opt.tour
NAME: Aleatorio1620391147_14.opt.tour
COMMENT: Optimal solution for Aleatorio1620391147_14 (150.89359610617578)
TYPE: TOUR
DIMENSION: 14
TOUR_SECTION
1 2 11 12 13 14 4 8 10 5 9 6 3 7
-1
EOF
